language Essence 1.3

letting bot_end be
        [1682, 173, 10663, 982, 8814, 2792, 886, 11058, 9939, 1061, 1289, 6809, 1979, 5288, 7164, 874, 1852, 916, 11580,
         2760, 3648, 10984, 1449, 6246, 10923, 5895, 11029, 7198, 9608, 2910, 11398, 7759, 944, 2090, 1468, 1088, 5913,
         11253, 3540, 623, 1835, 368, 1155, 1433;
             int(1..44)]
letting bot_start be
        [7315, 4474, 6315, 9002, 2435, 10824, 9978, 3793, 3093, 6256, 7477, 339, 10126, 7556, 6473, 6281, 8575, 9108,
         1128, 7681, 9417, 1855, 9074, 10713, 5519, 2555, 623, 4780, 3472, 7201, 7568, 4751, 9718, 10661, 8550, 4284,
         9539, 2545, 3860, 10097, 6478, 11315, 9908, 4416;
             int(1..44)]
letting buffer_col be 2
letting buffer_row be 2
letting corridor_size be 4
letting n_shelves_col be 30
letting n_shelves_row be 12
letting shelf_col_size be 2
letting shelf_row_size be 1
